# 3D Lennard-Jones Liquid Simulation
# This should run for about 1 minute on a typical workstation

# Initialization
units           lj
atom_style      atomic
dimension       3
boundary        p p p

# System creation
lattice         fcc 0.8442
region          box block 0 10 0 10 0 10
create_box      1 box
create_atoms    1 box
mass            1 1.0

# Potential definition
pair_style      lj/cut 2.5
pair_coeff      1 1 1.0 1.0 2.5

# Initial velocities
velocity        all create 1.44 87287 loop geom

# Simulation settings
neighbor        0.3 bin
neigh_modify    every 20 delay 0 check no

# Equilibration
fix             1 all nve
thermo          100
thermo_style    custom step temp pe ke etotal press
timestep        0.005

run             2000

# Production run (longer portion)
reset_timestep  0
thermo          500
dump            1 all atom 1000 dump.lammpstrj
run             10000
undump          1

# Final output
print "Simulation completed successfully"